9 22 40 10 23 65 34 7 69 60 56 43 32 4 50 45 63 55 25 15 29 36 17 27 59 12 72 18 44 68 51 48 21 47 49 5 54 42 24 38 37 26 1 13 2 57 33 28 73 75 58 3 0 64 46 71 6 19 20 74 52 61 11 66 41 70 31 8 67 62 53 14 16 30 76 39 35 